p cnf 386 460
3 -19 13 21 22 0
3 -19 13 21 -22 0
3 -19 13 -21 23 0
3 -19 13 -21 -23 0
-6 12 -4 24 25 0
-6 12 -4 24 -25 0
-6 12 -4 -24 26 0
-6 12 -4 -24 -26 0
7 10 5 27 28 0
7 10 5 27 -28 0
7 10 5 -27 29 0
7 10 5 -27 -29 0
-15 8 13 30 31 0
-15 8 13 30 -31 0
-15 8 13 -30 32 0
-15 8 13 -30 -32 0
-1 6 -2 33 34 0
-1 6 -2 33 -34 0
-1 6 -2 -33 35 0
-1 6 -2 -33 -35 0
-20 -9 10 36 37 0
-20 -9 10 36 -37 0
-20 -9 10 -36 38 0
-20 -9 10 -36 -38 0
-12 -5 -16 39 40 0
-12 -5 -16 39 -40 0
-12 -5 -16 -39 41 0
-12 -5 -16 -39 -41 0
-15 2 -7 42 43 0
-15 2 -7 42 -43 0
-15 2 -7 -42 44 0
-15 2 -7 -42 -44 0
-4 18 -16 45 46 0
-4 18 -16 45 -46 0
-4 18 -16 -45 47 0
-4 18 -16 -45 -47 0
13 -12 -1 48 49 0
13 -12 -1 48 -49 0
13 -12 -1 -48 50 0
13 -12 -1 -48 -50 0
7 1 -19 51 52 0
7 1 -19 51 -52 0
7 1 -19 -51 53 0
7 1 -19 -51 -53 0
10 -20 6 54 55 0
10 -20 6 54 -55 0
10 -20 6 -54 56 0
10 -20 6 -54 -56 0
6 -3 19 57 58 0
6 -3 19 57 -58 0
6 -3 19 -57 59 0
6 -3 19 -57 -59 0
-8 2 -18 60 61 0
-8 2 -18 60 -61 0
-8 2 -18 -60 62 0
-8 2 -18 -60 -62 0
-12 -18 17 63 64 0
-12 -18 17 63 -64 0
-12 -18 17 -63 65 0
-12 -18 17 -63 -65 0
6 2 -9 66 67 0
6 2 -9 66 -67 0
6 2 -9 -66 68 0
6 2 -9 -66 -68 0
15 17 13 69 70 0
15 17 13 69 -70 0
15 17 13 -69 71 0
15 17 13 -69 -71 0
-1 -7 12 72 73 0
-1 -7 12 72 -73 0
-1 -7 12 -72 74 0
-1 -7 12 -72 -74 0
-2 3 -11 75 76 0
-2 3 -11 75 -76 0
-2 3 -11 -75 77 0
-2 3 -11 -75 -77 0
-17 -14 -16 78 79 0
-17 -14 -16 78 -79 0
-17 -14 -16 -78 80 0
-17 -14 -16 -78 -80 0
-2 19 -13 81 82 0
-2 19 -13 81 -82 0
-2 19 -13 -81 83 0
-2 19 -13 -81 -83 0
-4 -18 -17 84 85 0
-4 -18 -17 84 -85 0
-4 -18 -17 -84 86 0
-4 -18 -17 -84 -86 0
-6 -19 -4 87 88 0
-6 -19 -4 87 -88 0
-6 -19 -4 -87 89 0
-6 -19 -4 -87 -89 0
-7 1 2 90 91 0
-7 1 2 90 -91 0
-7 1 2 -90 92 0
-7 1 2 -90 -92 0
-16 -17 -18 93 94 0
-16 -17 -18 93 -94 0
-16 -17 -18 -93 95 0
-16 -17 -18 -93 -95 0
-3 12 -10 96 97 0
-3 12 -10 96 -97 0
-3 12 -10 -96 98 0
-3 12 -10 -96 -98 0
-15 5 10 99 100 0
-15 5 10 99 -100 0
-15 5 10 -99 101 0
-15 5 10 -99 -101 0
9 7 -12 102 103 0
9 7 -12 102 -103 0
9 7 -12 -102 104 0
9 7 -12 -102 -104 0
10 6 -12 105 106 0
10 6 -12 105 -106 0
10 6 -12 -105 107 0
10 6 -12 -105 -107 0
-4 -2 14 108 109 0
-4 -2 14 108 -109 0
-4 -2 14 -108 110 0
-4 -2 14 -108 -110 0
-17 4 13 111 112 0
-17 4 13 111 -112 0
-17 4 13 -111 113 0
-17 4 13 -111 -113 0
-7 -10 15 114 115 0
-7 -10 15 114 -115 0
-7 -10 15 -114 116 0
-7 -10 15 -114 -116 0
-6 17 -9 117 118 0
-6 17 -9 117 -118 0
-6 17 -9 -117 119 0
-6 17 -9 -117 -119 0
-8 -11 20 120 121 0
-8 -11 20 120 -121 0
-8 -11 20 -120 122 0
-8 -11 20 -120 -122 0
16 -1 -7 123 124 0
16 -1 -7 123 -124 0
16 -1 -7 -123 125 0
16 -1 -7 -123 -125 0
13 12 2 126 127 0
13 12 2 126 -127 0
13 12 2 -126 128 0
13 12 2 -126 -128 0
10 9 17 129 130 0
10 9 17 129 -130 0
10 9 17 -129 131 0
10 9 17 -129 -131 0
-8 13 4 132 133 0
-8 13 4 132 -133 0
-8 13 4 -132 134 0
-8 13 4 -132 -134 0
10 -18 -14 135 136 0
10 -18 -14 135 -136 0
10 -18 -14 -135 137 0
10 -18 -14 -135 -137 0
14 13 -20 138 139 0
14 13 -20 138 -139 0
14 13 -20 -138 140 0
14 13 -20 -138 -140 0
-13 19 20 141 142 0
-13 19 20 141 -142 0
-13 19 20 -141 143 0
-13 19 20 -141 -143 0
-8 -10 3 144 145 0
-8 -10 3 144 -145 0
-8 -10 3 -144 146 0
-8 -10 3 -144 -146 0
-20 -9 -13 147 148 0
-20 -9 -13 147 -148 0
-20 -9 -13 -147 149 0
-20 -9 -13 -147 -149 0
-6 -16 10 150 151 0
-6 -16 10 150 -151 0
-6 -16 10 -150 152 0
-6 -16 10 -150 -152 0
8 5 15 153 154 0
8 5 15 153 -154 0
8 5 15 -153 155 0
8 5 15 -153 -155 0
6 -19 1 156 157 0
6 -19 1 156 -157 0
6 -19 1 -156 158 0
6 -19 1 -156 -158 0
-13 -4 12 159 160 0
-13 -4 12 159 -160 0
-13 -4 12 -159 161 0
-13 -4 12 -159 -161 0
-4 -15 -16 162 163 0
-4 -15 -16 162 -163 0
-4 -15 -16 -162 164 0
-4 -15 -16 -162 -164 0
12 -16 10 165 166 0
12 -16 10 165 -166 0
12 -16 10 -165 167 0
12 -16 10 -165 -167 0
-4 18 -7 168 169 0
-4 18 -7 168 -169 0
-4 18 -7 -168 170 0
-4 18 -7 -168 -170 0
20 -12 11 171 172 0
20 -12 11 171 -172 0
20 -12 11 -171 173 0
20 -12 11 -171 -173 0
-3 10 11 174 175 0
-3 10 11 174 -175 0
-3 10 11 -174 176 0
-3 10 11 -174 -176 0
-2 7 -1 177 178 0
-2 7 -1 177 -178 0
-2 7 -1 -177 179 0
-2 7 -1 -177 -179 0
11 -15 -7 180 181 0
11 -15 -7 180 -181 0
11 -15 -7 -180 182 0
11 -15 -7 -180 -182 0
3 -20 15 183 184 0
3 -20 15 183 -184 0
3 -20 15 -183 185 0
3 -20 15 -183 -185 0
-2 -18 12 186 187 0
-2 -18 12 186 -187 0
-2 -18 12 -186 188 0
-2 -18 12 -186 -188 0
-19 1 -10 189 190 0
-19 1 -10 189 -190 0
-19 1 -10 -189 191 0
-19 1 -10 -189 -191 0
-16 9 13 192 193 0
-16 9 13 192 -193 0
-16 9 13 -192 194 0
-16 9 13 -192 -194 0
6 13 4 195 196 0
6 13 4 195 -196 0
6 13 4 -195 197 0
6 13 4 -195 -197 0
-2 3 -16 198 199 0
-2 3 -16 198 -199 0
-2 3 -16 -198 200 0
-2 3 -16 -198 -200 0
-17 15 9 201 202 0
-17 15 9 201 -202 0
-17 15 9 -201 203 0
-17 15 9 -201 -203 0
16 2 -17 204 205 0
16 2 -17 204 -205 0
16 2 -17 -204 206 0
16 2 -17 -204 -206 0
-6 13 -7 207 208 0
-6 13 -7 207 -208 0
-6 13 -7 -207 209 0
-6 13 -7 -207 -209 0
2 -10 -5 210 211 0
2 -10 -5 210 -211 0
2 -10 -5 -210 212 0
2 -10 -5 -210 -212 0
12 -14 -16 213 214 0
12 -14 -16 213 -214 0
12 -14 -16 -213 215 0
12 -14 -16 -213 -215 0
-4 10 -14 216 217 0
-4 10 -14 216 -217 0
-4 10 -14 -216 218 0
-4 10 -14 -216 -218 0
-1 20 19 219 220 0
-1 20 19 219 -220 0
-1 20 19 -219 221 0
-1 20 19 -219 -221 0
-9 15 -13 222 223 0
-9 15 -13 222 -223 0
-9 15 -13 -222 224 0
-9 15 -13 -222 -224 0
-9 12 -20 225 226 0
-9 12 -20 225 -226 0
-9 12 -20 -225 227 0
-9 12 -20 -225 -227 0
14 -1 19 228 229 0
14 -1 19 228 -229 0
14 -1 19 -228 230 0
14 -1 19 -228 -230 0
16 -13 -14 231 232 0
16 -13 -14 231 -232 0
16 -13 -14 -231 233 0
16 -13 -14 -231 -233 0
1 -9 -11 234 235 0
1 -9 -11 234 -235 0
1 -9 -11 -234 236 0
1 -9 -11 -234 -236 0
-4 7 15 237 238 0
-4 7 15 237 -238 0
-4 7 15 -237 239 0
-4 7 15 -237 -239 0
10 14 -19 240 241 0
10 14 -19 240 -241 0
10 14 -19 -240 242 0
10 14 -19 -240 -242 0
20 13 -18 243 244 0
20 13 -18 243 -244 0
20 13 -18 -243 245 0
20 13 -18 -243 -245 0
15 9 1 246 247 0
15 9 1 246 -247 0
15 9 1 -246 248 0
15 9 1 -246 -248 0
-20 18 2 249 250 0
-20 18 2 249 -250 0
-20 18 2 -249 251 0
-20 18 2 -249 -251 0
-14 18 13 252 253 0
-14 18 13 252 -253 0
-14 18 13 -252 254 0
-14 18 13 -252 -254 0
9 -17 20 255 256 0
9 -17 20 255 -256 0
9 -17 20 -255 257 0
9 -17 20 -255 -257 0
5 -17 18 258 259 0
5 -17 18 258 -259 0
5 -17 18 -258 260 0
5 -17 18 -258 -260 0
14 12 15 261 262 0
14 12 15 261 -262 0
14 12 15 -261 263 0
14 12 15 -261 -263 0
20 -6 -19 264 265 0
20 -6 -19 264 -265 0
20 -6 -19 -264 266 0
20 -6 -19 -264 -266 0
-19 -7 6 267 268 0
-19 -7 6 267 -268 0
-19 -7 6 -267 269 0
-19 -7 6 -267 -269 0
-12 1 -20 270 271 0
-12 1 -20 270 -271 0
-12 1 -20 -270 272 0
-12 1 -20 -270 -272 0
16 9 14 273 274 0
16 9 14 273 -274 0
16 9 14 -273 275 0
16 9 14 -273 -275 0
-15 18 6 276 277 0
-15 18 6 276 -277 0
-15 18 6 -276 278 0
-15 18 6 -276 -278 0
-17 8 -4 279 280 0
-17 8 -4 279 -280 0
-17 8 -4 -279 281 0
-17 8 -4 -279 -281 0
16 -7 -2 282 283 0
16 -7 -2 282 -283 0
16 -7 -2 -282 284 0
16 -7 -2 -282 -284 0
3 11 17 285 286 0
3 11 17 285 -286 0
3 11 17 -285 287 0
3 11 17 -285 -287 0
-20 3 -12 288 289 0
-20 3 -12 288 -289 0
-20 3 -12 -288 290 0
-20 3 -12 -288 -290 0
20 -19 -11 291 292 0
20 -19 -11 291 -292 0
20 -19 -11 -291 293 0
20 -19 -11 -291 -293 0
294 295 297 301 309 0
294 295 297 301 -309 0
294 295 297 -301 310 0
294 295 297 -301 -310 0
294 295 -297 302 311 0
294 295 -297 302 -311 0
294 295 -297 -302 312 0
294 295 -297 -302 -312 0
294 -295 298 303 313 0
294 -295 298 303 -313 0
294 -295 298 -303 314 0
294 -295 298 -303 -314 0
294 -295 -298 304 315 0
294 -295 -298 304 -315 0
294 -295 -298 -304 316 0
294 -295 -298 -304 -316 0
-294 296 299 305 317 0
-294 296 299 305 -317 0
-294 296 299 -305 318 0
-294 296 299 -305 -318 0
-294 296 -299 306 319 0
-294 296 -299 306 -319 0
-294 296 -299 -306 320 0
-294 296 -299 -306 -320 0
-294 -296 300 307 321 0
-294 -296 300 307 -321 0
-294 -296 300 -307 322 0
-294 -296 300 -307 -322 0
-294 -296 -300 308 323 0
-294 -296 -300 308 -323 0
-294 -296 -300 -308 324 0
-294 -296 -300 -308 -324 0
325 326 328 332 340 0
325 326 328 332 -340 0
325 326 328 -332 341 0
325 326 328 -332 -341 0
325 326 -328 333 342 0
325 326 -328 333 -342 0
325 326 -328 -333 343 0
325 326 -328 -333 -343 0
325 -326 329 334 344 0
325 -326 329 334 -344 0
325 -326 329 -334 345 0
325 -326 329 -334 -345 0
325 -326 -329 335 346 0
325 -326 -329 335 -346 0
325 -326 -329 -335 347 0
325 -326 -329 -335 -347 0
-325 327 330 336 348 0
-325 327 330 336 -348 0
-325 327 330 -336 349 0
-325 327 330 -336 -349 0
-325 327 -330 337 350 0
-325 327 -330 337 -350 0
-325 327 -330 -337 351 0
-325 327 -330 -337 -351 0
-325 -327 331 338 352 0
-325 -327 331 338 -352 0
-325 -327 331 -338 353 0
-325 -327 331 -338 -353 0
-325 -327 -331 339 354 0
-325 -327 -331 339 -354 0
-325 -327 -331 -339 355 0
-325 -327 -331 -339 -355 0
356 357 359 363 371 0
356 357 359 363 -371 0
356 357 359 -363 372 0
356 357 359 -363 -372 0
356 357 -359 364 373 0
356 357 -359 364 -373 0
356 357 -359 -364 374 0
356 357 -359 -364 -374 0
356 -357 360 365 375 0
356 -357 360 365 -375 0
356 -357 360 -365 376 0
356 -357 360 -365 -376 0
356 -357 -360 366 377 0
356 -357 -360 366 -377 0
356 -357 -360 -366 378 0
356 -357 -360 -366 -378 0
-356 358 361 367 379 0
-356 358 361 367 -379 0
-356 358 361 -367 380 0
-356 358 361 -367 -380 0
-356 358 -361 368 381 0
-356 358 -361 368 -381 0
-356 358 -361 -368 382 0
-356 358 -361 -368 -382 0
-356 -358 362 369 383 0
-356 -358 362 369 -383 0
-356 -358 362 -369 384 0
-356 -358 362 -369 -384 0
-356 -358 -362 370 385 0
-356 -358 -362 370 -385 0
-356 -358 -362 -370 386 0
-356 -358 -362 -370 -386 0

